Bruniera/ragionamento automatico/progetto/benchmark/asp/mid30.lp
start(0).
limit(6).
n(14).
strada(0,4,9).
strada(0,6,9).
strada(0,7,1).
strada(1,4,15).
strada(1,5,1).
strada(1,8,12).
strada(1,13,6).
strada(2,6,10).
strada(2,7,17).
strada(2,9,6).
strada(2,11,4).
strada(2,13,19).
strada(3,1,7).
strada(3,4,5).
strada(3,6,2).
strada(3,8,16).
strada(3,12,7).
strada(3,13,20).
strada(4,0,2).
strada(4,1,15).
strada(4,5,0).
strada(4,7,0).
strada(4,8,11).
strada(4,9,1).
strada(4,11,11).
strada(4,12,8).
strada(4,13,2).
strada(5,0,0).
strada(5,3,14).
strada(5,4,19).
strada(5,6,10).
strada(5,9,16).
strada(5,10,10).
strada(5,12,12).
strada(6,0,17).
strada(6,2,12).
strada(6,4,12).
strada(6,5,16).
strada(6,7,13).
strada(6,8,11).
strada(6,10,8).
strada(6,12,17).
strada(7,1,3).
strada(7,2,8).
strada(7,3,20).
strada(7,8,1).
strada(7,9,14).
strada(7,13,5).
strada(8,2,1).
strada(8,11,15).
strada(8,13,10).
strada(9,0,8).
strada(9,1,12).
strada(9,3,11).
strada(9,4,3).
strada(9,5,17).
strada(9,6,7).
strada(9,8,18).
strada(9,11,16).
strada(9,13,11).
strada(10,0,5).
strada(10,4,2).
strada(10,5,16).
strada(10,7,10).
strada(10,13,6).
strada(11,0,14).
strada(11,2,16).
strada(11,3,3).
strada(11,7,16).
strada(11,8,0).
strada(11,12,13).
strada(11,13,8).
strada(12,1,12).
strada(12,3,10).
strada(12,5,19).
strada(12,6,15).
strada(12,8,5).
strada(12,9,9).
strada(12,10,0).
strada(12,13,1).
strada(13,0,19).
strada(13,1,17).
strada(13,3,0).
strada(13,5,10).
strada(13,8,3).
strada(13,12,12).
