Bruniera/ragionamento automatico/progetto/benchmark/minizinc/mid30.dzn
start = 1;
limit = 6;
n = 14;
m=[|-1,-1,-1,-1,9,-1,9,1,-1,-1,-1,-1,-1,-1,
|-1,-1,-1,-1,15,1,-1,-1,12,-1,-1,-1,-1,6,
|-1,-1,-1,-1,-1,-1,10,17,-1,6,-1,4,-1,19,
|-1,7,-1,-1,5,-1,2,-1,16,-1,-1,-1,7,20,
|2,15,-1,-1,-1,0,-1,0,11,1,-1,11,8,2,
|0,-1,-1,14,19,-1,10,-1,-1,16,10,-1,12,-1,
|17,-1,12,-1,12,16,-1,13,11,-1,8,-1,17,-1,
|-1,3,8,20,-1,-1,-1,-1,1,14,-1,-1,-1,5,
|-1,-1,1,-1,-1,-1,-1,-1,-1,-1,-1,15,-1,10,
|8,12,-1,11,3,17,7,-1,18,-1,-1,16,-1,11,
|5,-1,-1,-1,2,16,-1,10,-1,-1,-1,-1,-1,6,
|14,-1,16,3,-1,-1,-1,16,0,-1,-1,-1,13,8,
|-1,12,-1,10,-1,19,15,-1,5,9,0,-1,-1,1,
|19,17,-1,0,-1,10,-1,-1,3,-1,-1,-1,12,-1,
|]
;